n_res = 4;
rc = [ 18, 11, 16, 23 ];
n_tasks = 30;
d = [ 6, 5, 9, 1, 7, 7, 3, 3, 7, 2, 3, 3, 10, 3, 4, 7, 6, 2, 2, 10, 7, 1, 3, 9, 1, 5, 4, 8, 8, 3 ];
rr = [| 7, 5, 3, 6, 0, 8, 6, 1, 4, 2, 8, 0, 0, 0, 0, 10, 10, 0, 0, 3, 5, 0, 3, 1, 9, 0, 0, 10, 0, 8
      | 8, 0, 0, 0, 0, 6, 0, 2, 0, 0, 1, 4, 4, 0, 8, 0, 0, 0, 5, 0, 5, 0, 0, 0, 0, 6, 0, 3, 2, 4
      | 0, 0, 10, 10, 10, 0, 5, 5, 10, 0, 5, 8, 0, 4, 0, 0, 2, 0, 0, 4, 0, 0, 0, 0, 0, 0, 0, 0, 9, 0
      | 0, 0, 0, 10, 6, 4, 5, 9, 0, 0, 7, 0, 0, 10, 0, 0, 7, 10, 0, 1, 7, 6, 2, 4, 0, 3, 7, 0, 8, 0 |];
suc = [ { 2 }, 
        { 1 }, 
        { 4 }, 
        { 3 }, 
        { 6 }, 
        { 5 }, 
        { 8 }, 
        { 7 }, 
        { 10 }, 
        { 9 }, 
        { 12 }, 
        { 11 }, 
        { 14 }, 
        { 13 }, 
        { 16 }, 
        { 15 }, 
        { 18 }, 
        { 17 }, 
        { 20 }, 
        { 19 }, 
        { 22 }, 
        { 21 }, 
        { 24 }, 
        { 23 }, 
        { 26 }, 
        { 25 }, 
        { 28 }, 
        { 27 }, 
        { 30 }, 
        { 29 }]; 
